;; ===================== PROJECTED CANON (QE) =====================
;; Each clause below is entailed by Proj = ∃W.F over the canonical vocabulary.
;; Units appear first for clarity; OR-clauses (SAT-filtered) follow.
;; ==================================================================

;; Unit Bool constraints (entailed)
(assert (not patient_has_finding_of_mixed_malaria_now))
(assert (not patient_is_pregnant_now))
(assert (not patient_has_finding_of_allergy_to_mefloquine_inthehistory))
(assert (not patient_has_hypersensitivity_to_artemisinin_inthehistory))
(assert (not patient_has_undergone_splenectomy_inthehistory))
